
;this file is automatically generated: Wed Jul 27 14:39:12 IST 2016

;declarations generated

(declare-fun type_a14aec75_7f77_472d_87ef_30232426822a_Person ( Int) Bool )
(declare-fun oclSelect ( Int Bool) Int )
(declare-fun person_name ( Int) Int )
(declare-fun Gender ( Int) Int )
(declare-fun oclExcludes ( Int Int) Bool )
(declare-fun obj_88ae6e64_cd43_4478_9109_12600fce6774 ( Int) Int )
(declare-fun container_ ( Int) Int )
(declare-fun Cardinality ( Int) Int )
(declare-fun oclIncludes ( Int Int) Bool )
(declare-fun aux4 () Int )
(declare-fun rel_96992822_0ab9_4503_9f7d_ddefa8458f38_Marriage ( Int Int) Bool )
(declare-fun aux2 () Int )
(declare-fun aux3 () Int )
(declare-fun aux0 () Int )
(declare-fun aux1 () Int )
(declare-fun weight2 () Int )
(declare-fun weight3 () Int )
(declare-fun weight0 () Int )
(declare-fun weight1 () Int )
(declare-fun weight4 () Int )
(declare-fun ObjAt ( Int Int) Int )
(declare-fun CivilStatus ( Int) Int )

;formula(s) generated
(assert (forall ((p Int)) (=> ( type_a14aec75_7f77_472d_87ef_30232426822a_Person p )  (and (>= ( CivilStatus ( obj_88ae6e64_cd43_4478_9109_12600fce6774 p )  )  0) (<= ( CivilStatus ( obj_88ae6e64_cd43_4478_9109_12600fce6774 p )  )  3)))))
(assert (forall ((p Int)) (=> ( type_a14aec75_7f77_472d_87ef_30232426822a_Person p )  (and (>= ( Gender ( obj_88ae6e64_cd43_4478_9109_12600fce6774 p )  )  0) (<= ( Gender ( obj_88ae6e64_cd43_4478_9109_12600fce6774 p )  )  1)))))
(assert (and (>= aux0 0) (<= aux0 1)))
(assert (or (or (forall ((x Int)(y Int)) (=> (and ( rel_96992822_0ab9_4503_9f7d_ddefa8458f38_Marriage ( obj_88ae6e64_cd43_4478_9109_12600fce6774 x )   ( obj_88ae6e64_cd43_4478_9109_12600fce6774 y )  )  (and ( type_a14aec75_7f77_472d_87ef_30232426822a_Person x )  ( type_a14aec75_7f77_472d_87ef_30232426822a_Person y ) )) (or (or (or (= (* ( Cardinality ( container_ x )  )  0) (* ( Cardinality ( container_ y )  )  0)) (= (* ( Cardinality ( container_ x )  )  1) (* ( Cardinality ( container_ y )  )  0))) (= (* ( Cardinality ( container_ x )  )  0) (* ( Cardinality ( container_ y )  )  1))) (= (* ( Cardinality ( container_ x )  )  1) (* ( Cardinality ( container_ y )  )  1))))) (and (= aux0 1) true)) (and (= aux0 0) false)))
(assert (forall ((x Int)(y Int)) (=> (and ( rel_96992822_0ab9_4503_9f7d_ddefa8458f38_Marriage ( obj_88ae6e64_cd43_4478_9109_12600fce6774 x )   ( obj_88ae6e64_cd43_4478_9109_12600fce6774 y )  )  (and ( type_a14aec75_7f77_472d_87ef_30232426822a_Person x )  ( type_a14aec75_7f77_472d_87ef_30232426822a_Person y ) )) (or (or (or (= (* ( Cardinality ( container_ x )  )  0) (* ( Cardinality ( container_ y )  )  0)) (= (* ( Cardinality ( container_ x )  )  1) (* ( Cardinality ( container_ y )  )  0))) (= (* ( Cardinality ( container_ x )  )  0) (* ( Cardinality ( container_ y )  )  1))) (= (* ( Cardinality ( container_ x )  )  1) (* ( Cardinality ( container_ y )  )  1))))))
(assert (and (=> (= aux0 0) (= weight0 5)) (=> (= aux0 1) (= weight0 0))))
(assert (and (>= aux1 0) (<= aux1 1)))
(assert (or (or (forall ((p2 Int)(p1 Int)) (=> (and ( type_a14aec75_7f77_472d_87ef_30232426822a_Person p1 )  ( type_a14aec75_7f77_472d_87ef_30232426822a_Person p2 ) ) (=> (not (= ( obj_88ae6e64_cd43_4478_9109_12600fce6774 p1 )  ( obj_88ae6e64_cd43_4478_9109_12600fce6774 p2 ) ) ) (not (= ( person_name ( obj_88ae6e64_cd43_4478_9109_12600fce6774 p1 )  )  ( person_name ( obj_88ae6e64_cd43_4478_9109_12600fce6774 p2 )  ) ) )))) (and (= aux1 1) true)) (and (= aux1 0) false)))
(assert (and (=> (= aux1 0) (= weight1 12)) (=> (= aux1 1) (= weight1 0))))
(assert (and (>= aux2 0) (<= aux2 1)))
(assert (or (or (forall ((p Int)) (=> ( type_a14aec75_7f77_472d_87ef_30232426822a_Person p )  (=> (= ( Gender ( obj_88ae6e64_cd43_4478_9109_12600fce6774 p )  )  0) (not (exists ((v Int)) (and ( type_a14aec75_7f77_472d_87ef_30232426822a_Person v )  ( rel_96992822_0ab9_4503_9f7d_ddefa8458f38_Marriage ( obj_88ae6e64_cd43_4478_9109_12600fce6774 p )   ( obj_88ae6e64_cd43_4478_9109_12600fce6774 v )  ) )) )))) (and (= aux2 1) true)) (and (= aux2 0) false)))
(assert (and (=> (= aux2 0) (= weight2 9)) (=> (= aux2 1) (= weight2 0))))
(assert (and (>= aux3 0) (<= aux3 1)))
(assert (or (or (forall ((p Int)) (=> ( type_a14aec75_7f77_472d_87ef_30232426822a_Person p )  (=> (= ( Gender ( obj_88ae6e64_cd43_4478_9109_12600fce6774 p )  )  1) (not (exists ((v Int)) (and ( type_a14aec75_7f77_472d_87ef_30232426822a_Person v )  ( rel_96992822_0ab9_4503_9f7d_ddefa8458f38_Marriage ( obj_88ae6e64_cd43_4478_9109_12600fce6774 p )   ( obj_88ae6e64_cd43_4478_9109_12600fce6774 v )  ) )) )))) (and (= aux3 1) true)) (and (= aux3 0) false)))
(assert (and (=> (= aux3 0) (= weight3 9)) (=> (= aux3 1) (= weight3 0))))
(assert (and (>= aux4 0) (<= aux4 1)))
(assert (or (or (exists ((p Int)) ( type_a14aec75_7f77_472d_87ef_30232426822a_Person ( obj_88ae6e64_cd43_4478_9109_12600fce6774 p )  ) ) (and (= aux4 1) true)) (and (= aux4 0) false)))
(assert (and (=> (= aux4 0) (= weight4 3)) (=> (= aux4 1) (= weight4 0))))
(assert (= (+ (+ (+ (+ aux0 aux1) aux2) aux3) aux4) 0))

 ;end of formula 